objective value:                 0.000853037220000114
x_1_2                                               1 	(obj:0)
x_2_3                                               1 	(obj:0)
x_3_2                                               1 	(obj:0)
x_4_1                                               1 	(obj:0)
x_5_1                                               1 	(obj:0)
x_6_3                                               1 	(obj:0)
x_7_3                                               1 	(obj:0)
x_8_2                                               1 	(obj:0)
x_9_1                               0.999999999999999 	(obj:0)
x_10_1                                              1 	(obj:0)
x_11_2                                              1 	(obj:0)
x_12_2                                              1 	(obj:0)
x_13_3                                              1 	(obj:0)
x_14_3                                              1 	(obj:0)
x_15_1                                              1 	(obj:0)
x_16_2                                              1 	(obj:0)
x_17_3                                              1 	(obj:0)
x_18_3                                              1 	(obj:0)
x_19_2                                              1 	(obj:0)
x_20_2                                              1 	(obj:0)
ind_1                                               1 	(obj:0)
abs_1_3                                             1 	(obj:0)
ind_2                                               1 	(obj:0)
abs_2_1                                             1 	(obj:0)
ind_3                                               1 	(obj:0)
abs_3_2                                             1 	(obj:0)
epsI                             0.000853037220000114 	(obj:1)
prodt_x_19_2_t_x_20_2_coh_2                         1 	(obj:0)
prodt_x_1_2_t_x_2_1_more_coh_1           1.7029630706 	(obj:0)
prodt_x_4_1_t_x_5_1_more_coh_1          2.94715512785 	(obj:0)
prodt_x_5_1_t_x_6_1_more_coh_1           2.6711743071 	(obj:0)
prodt_x_9_1_t_x_14_1_more_coh_1          2.2803410927 	(obj:0)
prodt_x_10_1_t_x_11_1_more_coh_1         1.8525548401 	(obj:0)
prodt_x_1_2_t_x_2_2_more_coh_2           3.8575292409 	(obj:0)
prodt_x_3_2_t_x_4_2_more_coh_2           3.1811928144 	(obj:0)
prodt_x_8_2_t_x_11_2_more_coh_2          3.4141774579 	(obj:0)
prodt_x_11_2_t_x_12_2_more_coh_2         2.4184218839 	(obj:0)
prodt_x_12_2_t_x_13_2_more_coh_2         2.5058860461 	(obj:0)
prodt_x_16_2_t_x_17_2_more_coh_2         1.0719303748 	(obj:0)
prodt_x_2_3_t_x_3_3_more_coh_3           6.0864414913 	(obj:0)
prodt_x_6_3_t_x_7_3_more_coh_3           4.6302686793 	(obj:0)
prodt_x_7_3_t_x_9_3_more_coh_3           3.7306887664 	(obj:0)
prodt_x_13_3_t_x_15_3_more_coh_3         3.5210945675 	(obj:0)
prodt_x_14_3_t_x_15_3_more_coh_3    0.723076958400001 	(obj:0)
prodt_x_17_3_t_x_18_3_more_coh_3          1.135558163 	(obj:0)
prodt_x_1_2_t_x_2_2_more_irrev1_2_1    -1.27215436941124 	(obj:0)
prodt_x_3_2_t_x_4_1_more_irrev1_2_1    -0.32442890492131 	(obj:0)
prodt_x_4_1_t_x_5_2_more_irrev1_2_1    -1.11990478000064 	(obj:0)
prodt_x_5_1_t_x_10_2_more_irrev1_2_1    -2.90788529009606 	(obj:0)
prodt_x_8_2_t_x_9_1_more_irrev1_2_1    -1.74863441092881 	(obj:0)
prodt_x_9_1_t_x_11_2_more_irrev1_2_1    -2.80195987860697 	(obj:0)
prodt_x_10_1_t_x_12_2_more_irrev1_2_1    -0.78572180105002 	(obj:0)
prodt_x_11_2_t_x_13_1_more_irrev1_2_1   -0.188723367086936 	(obj:0)
prodt_x_12_2_t_x_13_1_more_irrev1_2_1   -0.745162300000005 	(obj:0)
prodt_x_15_1_t_x_20_2_more_irrev1_2_1    -1.66141085656606 	(obj:0)
prodt_x_1_2_t_x_2_2_more_irrev2_2_1     1.27215436941124 	(obj:0)
prodt_x_3_2_t_x_4_1_more_irrev2_2_1    0.324428904921309 	(obj:0)
prodt_x_4_1_t_x_5_2_more_irrev2_2_1           1.11990478 	(obj:0)
prodt_x_5_1_t_x_10_2_more_irrev2_2_1     2.90788529009606 	(obj:0)
prodt_x_8_2_t_x_9_1_more_irrev2_2_1     1.74863441092881 	(obj:0)
prodt_x_9_1_t_x_11_2_more_irrev2_2_1     2.80195987860697 	(obj:0)
prodt_x_10_1_t_x_12_2_more_irrev2_2_1    0.785721801050021 	(obj:0)
prodt_x_11_2_t_x_13_1_more_irrev2_2_1    0.188723367086936 	(obj:0)
prodt_x_12_2_t_x_13_1_more_irrev2_2_1    0.745162300000005 	(obj:0)
prodt_x_15_1_t_x_20_2_more_irrev2_2_1     1.66141085656606 	(obj:0)
prodt_x_1_2_t_x_2_3_more_irrev1_3_1     1.26518634598221 	(obj:0)
prodt_x_2_3_t_x_3_1_more_irrev1_3_1     2.43281999086814 	(obj:0)
prodt_x_4_1_t_x_5_3_more_irrev1_3_1           2.20569328 	(obj:0)
prodt_x_5_1_t_x_10_3_more_irrev1_3_1    0.661339921851345 	(obj:0)
prodt_x_6_3_t_x_7_1_more_irrev1_3_1     1.07186540275378 	(obj:0)
prodt_x_7_3_t_x_10_1_more_irrev1_3_1     1.57721374999999 	(obj:0)
prodt_x_9_1_t_x_11_3_more_irrev1_3_1    0.763194821782287 	(obj:0)
prodt_x_10_1_t_x_12_3_more_irrev1_3_1     2.39265220763865 	(obj:0)
prodt_x_13_3_t_x_17_1_more_irrev1_3_1                    1 	(obj:0)
prodt_x_14_3_t_x_15_1_more_irrev1_3_1   0.0400598947700322 	(obj:0)
prodt_x_15_1_t_x_20_3_more_irrev1_3_1     1.38893511390275 	(obj:0)
prodt_x_1_2_t_x_2_3_more_irrev2_3_1    -1.26518634598221 	(obj:0)
prodt_x_2_3_t_x_3_1_more_irrev2_3_1    -2.43281999086814 	(obj:0)
prodt_x_4_1_t_x_5_3_more_irrev2_3_1          -2.20569328 	(obj:0)
prodt_x_5_1_t_x_10_3_more_irrev2_3_1   -0.661339921851345 	(obj:0)
prodt_x_6_3_t_x_7_1_more_irrev2_3_1    -1.07186540275378 	(obj:0)
prodt_x_7_3_t_x_10_1_more_irrev2_3_1    -1.57721374999998 	(obj:0)
prodt_x_9_1_t_x_11_3_more_irrev2_3_1    -0.76319482178229 	(obj:0)
prodt_x_10_1_t_x_12_3_more_irrev2_3_1    -2.39265220763865 	(obj:0)
prodt_x_13_3_t_x_17_1_more_irrev2_3_1                   -1 	(obj:0)
prodt_x_14_3_t_x_15_1_more_irrev2_3_1  -0.0400598947700322 	(obj:0)
prodt_x_15_1_t_x_20_3_more_irrev2_3_1    -1.38893511390275 	(obj:0)
prodt_x_1_2_t_x_2_3_more_irrev1_3_2    -1.26518634598221 	(obj:0)
prodt_x_2_3_t_x_3_2_more_irrev1_3_2   -0.649609281572058 	(obj:0)
prodt_x_3_2_t_x_4_3_more_irrev1_3_2    -3.50800716509707 	(obj:0)
prodt_x_6_3_t_x_7_2_more_irrev1_3_2    -3.74287596741487 	(obj:0)
prodt_x_7_3_t_x_10_2_more_irrev1_3_2   -0.361331729999999 	(obj:0)
prodt_x_8_2_t_x_9_3_more_irrev1_3_2    -1.31898277681117 	(obj:0)
prodt_x_11_2_t_x_13_3_more_irrev1_3_2    -2.88682628701541 	(obj:0)
prodt_x_12_2_t_x_14_3_more_irrev1_3_2   -0.307083549999999 	(obj:0)
prodt_x_13_3_t_x_17_2_more_irrev1_3_2   -0.862958968444096 	(obj:0)
prodt_x_14_3_t_x_15_2_more_irrev1_3_2    -2.22628111890755 	(obj:0)
prodt_x_16_2_t_x_20_3_more_irrev1_3_2   -0.537185386386215 	(obj:0)
prodt_x_17_3_t_x_18_2_more_irrev1_3_2    -0.14143771420998 	(obj:0)
prodt_x_18_3_t_x_19_2_more_irrev1_3_2     1.72885732303027 	(obj:0)
prodt_x_1_2_t_x_2_3_more_irrev2_3_2     1.26518634598221 	(obj:0)
prodt_x_2_3_t_x_3_2_more_irrev2_3_2    0.649609281572058 	(obj:0)
prodt_x_3_2_t_x_4_3_more_irrev2_3_2     3.50800716509707 	(obj:0)
prodt_x_6_3_t_x_7_2_more_irrev2_3_2     3.74287596741487 	(obj:0)
prodt_x_7_3_t_x_10_2_more_irrev2_3_2    0.361331729999989 	(obj:0)
prodt_x_8_2_t_x_9_3_more_irrev2_3_2     1.31898277681117 	(obj:0)
prodt_x_11_2_t_x_13_3_more_irrev2_3_2     2.88682628701541 	(obj:0)
prodt_x_12_2_t_x_14_3_more_irrev2_3_2    0.307083549999999 	(obj:0)
prodt_x_13_3_t_x_17_2_more_irrev2_3_2    0.862958968444096 	(obj:0)
prodt_x_14_3_t_x_15_2_more_irrev2_3_2     2.22628111890755 	(obj:0)
prodt_x_16_2_t_x_20_3_more_irrev2_3_2    0.537185386386215 	(obj:0)
prodt_x_17_3_t_x_18_2_more_irrev2_3_2     0.14143771420998 	(obj:0)
prodt_x_18_3_t_x_19_2_more_irrev2_3_2     1.72885732303027 	(obj:0)
SCIP Status        : solving was interrupted [time limit reached]
Total Time         :    3600.00
  solving          :    3600.00
  presolving       :       0.06 (included in solving)
  reading          :       0.00
  copying          :       1.18 (134 #copies) (minimal 0.00, maximal 0.02, average 0.01)
Original Problem   :
  Problem name     : ../instances/Pot4/Pot4_T_20B_alpha=18.txt.spa
  Variables        : 101 (100 binary, 0 integer, 0 implicit integer, 1 continuous)
  Constraints      : 193 initial, 193 maximal
  Objective sense  : maximize
Presolved Problem  :
  Problem name     : t_../instances/Pot4/Pot4_T_20B_alpha=18.txt.spa
  Variables        : 590 (92 binary, 0 integer, 16 implicit integer, 482 continuous)
  Constraints      : 2015 initial, 4824 maximal
Presolvers         :   ExecTime  SetupTime  Calls  FixedVars   AggrVars   ChgTypes  ChgBounds   AddHoles    DelCons    AddCons   ChgSides   ChgCoefs
  boundshift       :       0.00       0.00      0          0          0          0          0          0          0          0          0          0
  components       :       0.00       0.00      1          0          0          0          0          0          0          0          0          0
  convertinttobin  :       0.00       0.00      0          0          0          0          0          0          0          0          0          0
  domcol           :       0.00       0.00      1          0          0          0          0          0          0          0          0          0
  dualagg          :       0.00       0.00      0          0          0          0          0          0          0          0          0          0
  dualinfer        :       0.00       0.00      0          0          0          0          0          0          0          0          0          0
  gateextraction   :       0.00       0.00      3          0          0          0          0          0        108         34          0          0
  implfree         :       0.00       0.00      0          0          0          0          0          0          0          0          0          0
  implics          :       0.00       0.00      4          0          0          0          0          0          0          0          0          0
  inttobinary      :       0.00       0.00      0          0          0          0          0          0          0          0          0          0
  redvub           :       0.00       0.00      0          0          0          0          0          0          0          0          0          0
  stuffing         :       0.01       0.00      1          0          0          0          0          0          0          0          0          0
  trivial          :       0.00       0.00      7          0          0          0          0          0          0          0          0          0
  tworowbnd        :       0.00       0.00      0          0          0          0          0          0          0          0          0          0
  dualfix          :       0.00       0.00      7          4          0          0          0          0          0          0          0          0
  genvbounds       :       0.00       0.00      0          0          0          0          0          0          0          0          0          0
  probing          :       0.03       0.00      1          0          0          0          4          0          0          0          0          0
  pseudoobj        :       0.00       0.00      0          0          0          0          0          0          0          0          0          0
  varbound         :       0.00       0.00      9          0          0          0          0          0         28         28          0          0
  setppc           :       0.01       0.00     12          0          0          0          0          0          0          0          0          0
  and              :       0.00       0.00      4          0         12          0          0          0         12          0          0          0
  linear           :       0.00       0.00      9          3          1          0          4          0          7          0         12         12
  logicor          :       0.00       0.00      7          0          0          0          0          0          0          0          0          0
  bounddisjunction :       0.00       0.00      0          0          0          0          0          0          0          0          0          0
  quadratic        :       0.01       0.00      2          0          0          0          0          0          0       1915          0          0
  root node        :          -          -      -          1          -          -         84          -          -          -          -          -
Constraints        :     Number  MaxNumber  #Separate #Propagate    #EnfoLP    #EnfoPS     #Check   #ResProp    Cutoffs    DomReds       Cuts    Applied      Conss   Children
  integral         :          0          0          0          0    2081873          0     506227          0          0      52623          0          0        164    4105556
  varbound         :        869        869         87   12233029      25060          0      57379    6566965     110177   92090506          0          0          0          0
  setppc           :        110        110         87   12122696      25058          0       2400    3228216      30081    5781708         11          0          0          0
  and              :         22         22     318327    1686972      18069          0       1969     449799          7     106377       7530       7524          0          0
  linear           :        979        979         87   12092772      19073          0       1581    3707295     472955  164054149     956858     956641          0          0
  logicor          :         35+      1332         76    4059382          0          0          0      98731      10594     415794          1          0          0          0
  bounddisjunction :          0+      1805          0    6083879          0          0          0     339313      28722    6753895          0          0          0          0
  countsols        :          0          0          0          0          6          0     448460          0          0          0          0          0          0          0
Constraint Timings :  TotalTime  SetupTime   Separate  Propagate     EnfoLP     EnfoPS      Check    ResProp    SB-Prop
  integral         :      18.31       0.00       0.00       0.00      18.27       0.00       0.04       0.00       0.00
  varbound         :      76.74       0.00       0.00      75.20       0.12       0.00       0.30       0.97       0.15
  setppc           :      50.78       0.00       0.00      49.98       0.00       0.00       0.01       0.69       0.10
  and              :       0.45       0.00       0.10       0.24       0.01       0.00       0.00       0.09       0.01
  linear           :     235.09       0.00       0.01     231.38       0.56       0.00       0.04       2.66       0.44
  logicor          :      20.68       0.00       0.00      20.58       0.00       0.00       0.00       0.10       0.00
  bounddisjunction :      69.58       0.00       0.00      69.39       0.00       0.00       0.00       0.14       0.05
  countsols        :       0.02       0.00       0.00       0.00       0.00       0.00       0.02       0.00       0.00
Propagators        : #Propagate   #ResProp    Cutoffs    DomReds
  dualfix          :          2          0          0          0
  genvbounds       :          0          0          0          0
  obbt             :          0          0          0          0
  probing          :          0          0          0          0
  pseudoobj        :   13067105          0       7877         82
  redcost          :    4585052          0       4990     739872
  rootredcost      :          7          0          0          1
  vbounds          :   14307328      23201         27     120362
Propagator Timings :  TotalTime  SetupTime   Presolve  Propagate    ResProp    SB-Prop
  dualfix          :       0.00       0.00       0.00       0.00       0.00       0.00
  genvbounds       :       1.93       0.00       0.00       1.93       0.00       0.00
  obbt             :       0.00       0.00       0.00       0.00       0.00       0.00
  probing          :       0.03       0.00       0.03       0.00       0.00       0.00
  pseudoobj        :       4.16       0.00       0.00       4.15       0.00       0.01
  redcost          :      28.08       0.00       0.00      28.08       0.00       0.00
  rootredcost      :       2.18       0.00       0.00       2.18       0.00       0.00
  vbounds          :       5.19       0.00       0.00       5.17       0.02       0.00
Conflict Analysis  :       Time      Calls    Success    DomReds  Conflicts   Literals    Reconvs ReconvLits   LP Iters
  propagation      :      11.40     188110     187985          -    2286847       38.8      13455       45.7          -
  infeasible LP    :       7.60      56768      42892          -     697001       40.3         87       16.7          0
  bound exceed. LP :       0.00          0          0          -          0        0.0          0        0.0          0
  strong branching :       0.00          0          0          -          0        0.0          0        0.0          0
  pseudo solution  :       0.00          0          0          -          0        0.0          0        0.0          -
  applied globally :       4.69          -          -          0     383197       20.0          -          -          -
  applied locally  :          -          -          -          0       6660       32.4          -          -          -
Separators         :   ExecTime  SetupTime      Calls    Cutoffs    DomReds       Cuts    Applied      Conss
  cut pool         :       0.00                    86          -          -       1108          -          -    (maximal pool size: 842)
  cgmip            :       0.00       0.00          0          0          0          0          0          0
  clique           :       0.01       0.00         87          0          0         39         32          0
  closecuts        :       0.00       0.00          0          0          0          0          0          0
  cmir             :       0.01       0.00         10          0          0        288        137          0
  disjunctive      :       0.00       0.00          0          0          0          0          0          0
  eccuts           :       0.00       0.00          0          0          0          0          0          0
  flowcover        :       0.10       0.00         15          0          0        235         31          0
  gomory           :       0.02       0.00         10          0          0          2          2          0
  impliedbounds    :       0.01       0.00         87          0          0        753        132          0
  intobj           :       0.00       0.00          0          0          0          0          0          0
  mcf              :       0.00       0.00          1          0          0          0          0          0
  oddcycle         :       0.00       0.00          0          0          0          0          0          0
  rapidlearning    :       0.00       0.00          0          0          0          0          0          0
  strongcg         :       0.05       0.00         20          0          0          0          0          0
  zerohalf         :       0.00       0.00          0          0          0          0          0          0
Pricers            :   ExecTime  SetupTime      Calls       Vars
  problem variables:       0.00          -          0          0
Branching Rules    :   ExecTime  SetupTime   BranchLP  BranchExt   BranchPS    Cutoffs    DomReds       Cuts      Conss   Children
  allfullstrong    :       0.00       0.00          0          0          0          0          0          0          0          0
  cloud            :       0.00       0.00          0          0          0          0          0          0          0          0
  distribution     :       0.00       0.00          0          0          0          0          0          0          0          0
  fullstrong       :       0.00       0.00          0          0          0          0          0          0          0          0
  inference        :       0.00       0.00          0          0          0          0          0          0          0          0
  leastinf         :       0.00       0.00          0          0          0          0          0          0          0          0
  mostinf          :       0.00       0.00          0          0          0          0          0          0          0          0
  multaggr         :       0.00       0.00          0          0          0          0          0          0          0          0
  nodereopt        :       0.00       0.00          0          0          0          0          0          0          0          0
  pscost           :       0.00       0.00          0          0          0          0          0          0          0          0
  random           :       0.00       0.00          0          0          0          0          0          0          0          0
  relpscost        :      17.49       0.00    2056811          0          0          0      52623          0       -593    4105556
Primal Heuristics  :   ExecTime  SetupTime      Calls      Found       Best
  LP solutions     :       0.00          -          -          6          -
  pseudo solutions :       0.00          -          -          0          -
  strong branching :       0.01          -          -          0          -
  SpaGreedy        :     522.02       0.00     448459          2          1
  actconsdiving    :       0.00       0.00          0          0          0
  bound            :       0.00       0.00          0          0          0
  clique           :       0.00       0.00          0          0          0
  coefdiving       :      28.10       0.00       9872          0          0
  crossover        :       0.96       0.00          1          0          0
  dins             :       0.00       0.00          0          0          0
  distributiondivin:      43.56       0.00       9870          0          0
  dualval          :       0.00       0.00          0          0          0
  feaspump         :      16.52       0.00       2194          0          0
  fixandinfer      :       0.00       0.00          0          0          0
  fracdiving       :      27.67       0.00       9872          0          0
  guideddiving     :      27.90       0.00       9872          0          0
  indicator        :       0.35       0.00          0          0          0
  intdiving        :       0.00       0.00          0          0          0
  intshifting      :       0.30       0.00        125          0          0
  linesearchdiving :      26.99       0.00       9872          0          0
  localbranching   :       0.00       0.00          0          0          0
  mutation         :       0.00       0.00          0          0          0
  nlpdiving        :       0.03       0.00          0          0          0
  objpscostdiving  :      17.35       0.00       2599          0          0
  octane           :       0.00       0.00          0          0          0
  ofins            :       0.00       0.00          0          0          0
  oneopt           :       0.62       0.00          6          0          0
  proximity        :       0.00       0.00          0          0          0
  pscostdiving     :      27.32       0.00       9872          0          0
  randrounding     :       0.70       0.00      55650          0          0
  rens             :       0.10       0.00          1          0          0
  reoptsols        :       0.00       0.00          0          0          0
  rins             :       3.76       0.00         98          0          0
  rootsoldiving    :      17.99       0.00       3193          0          0
  rounding         :       1.00       0.00      20119          0          0
  shiftandpropagate:       0.00       0.00          0          0          0
  shifting         :       1.64       0.00       6247          0          0
  simplerounding   :       0.32       0.00          0          0          0
  subnlp           :       0.51       0.00          0          0          0
  trivial          :       0.00       0.00          2          0          0
  trivialnegation  :       0.00       0.00          0          0          0
  trysol           :       0.84       0.00          0          0          0
  twoopt           :       0.00       0.00          0          0          0
  undercover       :       0.00       0.00          1          0          0
  vbounds          :       0.00       0.00          0          0          0
  veclendiving     :      29.24       0.00       9872          0          0
  zeroobj          :       0.00       0.00          0          0          0
  zirounding       :       0.62       0.00       1000          0          0
  other solutions  :          -          -          -          0          -
Diving Statistics  :      Calls      Nodes   LP Iters Backtracks   MinDepth   MaxDepth   AvgDepth  NLeafSols  MinSolDpt  MaxSolDpt  AvgSolDpt
  actconsdiving    :          0          -          -          -          -          -          -          -          -          -          -
  coefdiving       :       9872      64650     535407      15421         16         45       29.8          -          -          -          -
  distributiondivin:       9870      59177     618548      13701         16         40       29.6          -          -          -          -
  fracdiving       :       9872      66081     645856      16703         14         46       29.9          -          -          -          -
  guideddiving     :       9872      65035     642636      16216         19         47       30.0          -          -          -          -
  linesearchdiving :       9872      58287     618241      16252         16         40       29.1          -          -          -          -
  pscostdiving     :       9872      71919     603842      13535         15         48       30.8          -          -          -          -
  veclendiving     :       9872      62973     544375      18766         16         39       29.4          -          -          -          -
LP                 :       Time      Calls Iterations  Iter/call   Iter/sec  Time-0-It Calls-0-It
  primal LP        :       0.01         13          0       0.00       0.00       0.01         13
  dual LP          :    1405.73    3750319   56656054      18.44   40303.65      65.25     677425
  lex dual LP      :       0.00          0          0       0.00          -
  barrier LP       :       0.00          0          0       0.00          -       0.00          0
  diving/probing LP:     147.37     241789    5997828      24.81   40699.11
  strong branching :       6.83       5564     256197      46.05   37510.54
    (at root node) :          -         19       1076      56.63          -
  conflict analysis:       0.00          0          0       0.00          -
B&B Tree           :
  number of runs   :          1
  nodes            :    3767280 (2052778 internal, 1714502 leaves)
  nodes (total)    :    3767280 (2052778 internal, 1714502 leaves)
  nodes left       :     313707
  max depth        :         40
  max depth (total):         40
  backtracks       :     878141 (23.3%)
  delayed cutoffs  :      23353
  repropagations   :     181774 (6649891 domain reductions, 22140 cutoffs)
  avg switch length:       5.75
  switching time   :     506.18
Root Node          :
  First LP value   : +3.00000000000000e+00
  First LP Iters   :        378 (37800.00 Iter/sec)
  First LP Time    :       0.01
  Final Dual Bound : +7.07151721890978e-03
  Final Root Iters :       2109
Solution           :
  Solutions found  :          8 (7 improvements)
  First Solution   : +7.73579861000032e-04   (in run 1, after 1 nodes, 0.06 seconds, depth 0, found by <SpaGreedy>)
  Gap First Sol.   :   infinite
  Gap Last Sol.    :      68.09 %
  Primal Bound     : +8.53037220000114e-04   (in run 1, after 247223 nodes, 267.20 seconds, depth 34, found by <relaxation>)
  Dual Bound       : +1.26447308034276e-03
  Gap              :      48.23 %
  Avg. Gap         :      39.18 % (141048.86 primal-dual integral)
